results_rootrelaxation/bin018_060_009.srr.sol
solution status: optimal solution found
objective value:                                    0
_var2736_                          0.0668635087885207 	(obj:0)
_var2741_                          0.0919933948500272 	(obj:0)
_var2743_                           0.102892995540518 	(obj:0)
_var2753_                          0.0254225889000881 	(obj:0)
_var2772_                           0.214389142063799 	(obj:0)
_var2773_                         0.00841093790410929 	(obj:0)
_var2774_                          0.0459392262946721 	(obj:0)
_var2780_                          0.0134115449385424 	(obj:0)
_var2790_                           0.113035926110818 	(obj:0)
_var2808_                          0.0211437960898071 	(obj:0)
_var2809_                            0.10515430599782 	(obj:0)
_var2820_                          0.0282967049569267 	(obj:0)
_var2824_                          0.0515350143865969 	(obj:0)
_var2826_                           0.021058378371404 	(obj:0)
_var2828_                             0.2277388513525 	(obj:0)
_var2832_                          0.0726059905691649 	(obj:0)
_var2834_                          0.0589748641925207 	(obj:0)
_var2836_                           0.075255514410228 	(obj:0)
_var2839_                           0.152790229930695 	(obj:0)
_var2845_                           0.123933413294105 	(obj:0)
_var2847_                          0.0718726666469541 	(obj:0)
_var2867_                           0.360598469043079 	(obj:0)
_var2869_                           0.265559855818087 	(obj:0)
_var2879_                          0.0126427488126866 	(obj:0)
_var2883_                           0.235656164113171 	(obj:0)
_var2887_                          0.0204963210054567 	(obj:0)
_var2889_                         0.00638940763022565 	(obj:0)
_var2891_                            0.16577869634849 	(obj:0)
_var2895_                           0.138866266520895 	(obj:0)
_var2899_                           0.211316699234314 	(obj:0)
_var2900_                          0.0574490362317716 	(obj:0)
_var2913_                          0.0666924049851599 	(obj:0)
_var2922_                           0.185256315700722 	(obj:0)
_var2926_                           0.261051707111673 	(obj:0)
_var2928_                          0.0628216489865806 	(obj:0)
_var2932_                           0.187090919621283 	(obj:0)
_var2938_                           0.221386446702707 	(obj:0)
_var2940_                          0.0973075448798748 	(obj:0)
_var2943_                           0.243120225126339 	(obj:0)
_var2945_                          0.0396099650868738 	(obj:0)
_var2951_                          0.0393909895100009 	(obj:0)
_var2954_                           0.192421450297867 	(obj:0)
_var2971_                           0.243188225137492 	(obj:0)
_var2975_                           0.108142617624191 	(obj:0)
_var2978_                           0.156329171924734 	(obj:0)
_var2979_                          0.0245678253915105 	(obj:0)
_var2980_                           0.181064024554925 	(obj:0)
_var2983_                          0.0109903122227727 	(obj:0)
_var2985_                           0.101040293130891 	(obj:0)
_var2987_                            0.27457906068077 	(obj:0)
_var2989_                         0.000296926747006537 	(obj:0)
_var2992_                           0.298009854502027 	(obj:0)
_var3002_                         0.00207692041869895 	(obj:0)
_var3004_                          0.0933092857562486 	(obj:0)
_var3006_                           0.306030475859217 	(obj:0)
_var3008_                           0.132237950111216 	(obj:0)
_var3013_                           0.169183650398422 	(obj:0)
_var3015_                            0.12209483351919 	(obj:0)
_var3016_                           0.231572758061042 	(obj:0)
_var3018_                         0.00692333294402183 	(obj:0)
_var3021_                           0.213589369671394 	(obj:0)
_var3027_                         0.00699305313373967 	(obj:0)
_var3031_                           0.162023466143989 	(obj:0)
_var3034_                           0.224219196201388 	(obj:0)
_var3035_                           0.317646152306107 	(obj:0)
_var3038_                          0.0546053826600279 	(obj:0)
_var3040_                          0.0482119364973144 	(obj:0)
_var3041_                         0.00279677127713823 	(obj:0)
_var3042_                         0.000155095581256747 	(obj:0)
_var3043_                           0.160088540686144 	(obj:0)
_var3045_                           0.162895545571664 	(obj:0)
_var3046_                           0.388147932828875 	(obj:0)
_var3050_                           0.524976836492685 	(obj:0)
_var3053_                          0.0372581599831036 	(obj:0)
_var3061_                           0.220861331586259 	(obj:0)
_var3062_                             0.1599506437888 	(obj:0)
_var3064_                             0.2197204652792 	(obj:0)
_var3068_                          0.0172593334978813 	(obj:0)
_var3070_                         0.00584661143132599 	(obj:0)
_var3073_                          0.0212685123892863 	(obj:0)
_var3075_                          0.0885238610557431 	(obj:0)
_var3077_                           0.142383682172413 	(obj:0)
_var3078_                          0.0250305060287823 	(obj:0)
_var3080_                           0.169997075440877 	(obj:0)
_var3086_                          0.0683427267242988 	(obj:0)
_var3089_                           0.101304374396163 	(obj:0)
_var3092_                          0.0338920206267158 	(obj:0)
_var3093_                          0.0562692271084324 	(obj:0)
_var3094_                          0.0082360912195778 	(obj:0)
_var3095_                          0.0926308559825969 	(obj:0)
_var3098_                          0.0228404753197667 	(obj:0)
_var3099_                          0.0628951516488042 	(obj:0)
_var3102_                           0.168454493060201 	(obj:0)
_var3104_                           0.275077474131179 	(obj:0)
_var3106_                          0.0042209980414434 	(obj:0)
_var3107_                          0.0874425893993429 	(obj:0)
_var3108_                           0.234834931997872 	(obj:0)
_var3109_                           0.308488443418702 	(obj:0)
_var3110_                           0.141507352026773 	(obj:0)
_var3112_                          0.0641497556878436 	(obj:0)
_var3114_                          0.0656221193085401 	(obj:0)
_var3116_                           0.192569130223484 	(obj:0)
_var3119_                          0.0785714582100075 	(obj:0)
_var3120_                          0.0149475648363142 	(obj:0)
_var3121_                           0.125507130485062 	(obj:0)
_var3122_                           0.157120513163649 	(obj:0)
_var3126_                             0.1596759257927 	(obj:0)
_var3127_                          0.0598488255186209 	(obj:0)
_var3131_                          0.0677111432123051 	(obj:0)
_var3132_                           0.109541385930412 	(obj:0)
_var3133_                           0.190949064183612 	(obj:0)
_var3134_                          0.0768568366078893 	(obj:0)
_var3135_                           0.143593212666927 	(obj:0)
_var3136_                           0.172698395918542 	(obj:0)
_var3137_                           0.146662895279121 	(obj:0)
_var3138_                          0.0249777407870691 	(obj:0)
_var3139_                           0.196389488433817 	(obj:0)
_var3140_                          0.0258028797925743 	(obj:0)
_var3142_                           0.016509700230012 	(obj:0)
_var3143_                          0.0501535612404097 	(obj:0)
_var3144_                            0.20735596293072 	(obj:0)
_var3146_                          0.0546297968348225 	(obj:0)
_var3148_                           0.078638579351466 	(obj:0)
_var3149_                          0.0580929969028955 	(obj:0)
_var3150_                          0.0428859928874236 	(obj:0)
_var3151_                           0.178181770803596 	(obj:0)
_var3154_                            0.16710485369332 	(obj:0)
_var3155_                          0.0231134892085591 	(obj:0)
_var3156_                            0.16005029889891 	(obj:0)
_var3157_                           0.003297881236834 	(obj:0)
_var3159_                          0.0769777465501869 	(obj:0)
_var3160_                           0.142916395930943 	(obj:0)
_var3162_                           0.130348983864952 	(obj:0)
_var3163_                           0.155536862333668 	(obj:0)
_var3165_                          0.0058266866311778 	(obj:0)
_var3167_                           0.028746903836867 	(obj:0)
_var3168_                          0.0889661450843564 	(obj:0)
_var3171_                          0.0405212845845276 	(obj:0)
_var3173_                          0.0461037047770254 	(obj:0)
_var3174_                           0.109845214144689 	(obj:0)
_var3175_                           0.190119366957925 	(obj:0)
_var3178_                          0.0771865358221865 	(obj:0)
_var3182_                         0.000644268917545932 	(obj:0)
_var3183_                          0.0754155074850874 	(obj:0)
_var3186_                          0.0998571927793464 	(obj:0)
_var3187_                          0.0688432246209665 	(obj:0)
_var3188_                          0.0131229454594331 	(obj:0)
_var3190_                          0.0797375256835194 	(obj:0)
_var3191_                          0.0604706894273373 	(obj:0)
_var3195_                            0.12945600070209 	(obj:0)
